O2 Sn1                                  
   1.00000000000000     
     9.0501254006688683    0.0000000000000000    0.0000000000000000
    -0.0000000000000000    9.0501254006688683    0.0000000000000000
     0.0000000000000000    0.0000000000000000    6.1510911259149612
   Sn   O 
    16    32
Direct
 -0.0000000000000000  0.0000000000000000  0.0000000000000000
 -0.0000000000000000  0.5000000000000000  0.0000000000000000
  0.5000000000000000  0.0000000000000000  0.0000000000000000
  0.5000000000000000  0.5000000000000000  0.0000000000000000
  0.2500000000000000  0.2500000000000000  0.2500000000000000
  0.2500000000000000  0.7500000000000000  0.2500000000000000
  0.7500000000000000  0.2500000000000000  0.2500000000000000
  0.7500000000000000  0.7500000000000000  0.2500000000000000
 -0.0000000000000000  0.0000000000000000  0.5000000000000000
 -0.0000000000000000  0.5000000000000000  0.5000000000000000
  0.5000000000000000  0.0000000000000000  0.5000000000000000
  0.5000000000000000  0.5000000000000000  0.5000000000000000
  0.2500000000000000  0.2500000000000000  0.7500000000000000
  0.2500000000000000  0.7500000000000000  0.7500000000000000
  0.7500000000000000  0.2500000000000000  0.7500000000000000
  0.7500000000000000  0.7500000000000000  0.7500000000000000
  0.1524453997752006  0.1524453997752006 -0.0000000000000000
  0.1524453997752006  0.6524454147751981 -0.0000000000000000
  0.6524454147751981  0.1524453997752006  0.0000000000000000
  0.6524454147751981  0.6524454147751981  0.0000000000000000
  0.3475545852248017  0.3475545852248017  0.0000000000000000
  0.3475545852248017  0.8475545852248019 -0.0000000000000000
  0.8475545852248019  0.3475545852248017  0.0000000000000000
  0.8475545852248019  0.8475545852248019 -0.0000000000000000
  0.0975545932247953  0.4024454147751983  0.2500000000000000
  0.0975545932247953  0.9024454147751981  0.2500000000000000
  0.5975545852248019  0.4024454147751983  0.2500000000000000
  0.5975545852248019  0.9024454147751981  0.2500000000000000
  0.4024454147751983  0.0975545932247953  0.2500000000000000
  0.4024454147751983  0.5975545852248019  0.2500000000000000
  0.9024454147751981  0.0975545932247953  0.2500000000000000
  0.9024454147751981  0.5975545852248019  0.2500000000000000
  0.1524453997752006  0.1524453997752006  0.5000000000000000
  0.1524453997752006  0.6524454147751981  0.5000000000000000
  0.6524454147751981  0.1524453997752006  0.5000000000000000
  0.6524454147751981  0.6524454147751981  0.5000000000000000
  0.3475545852248017  0.3475545852248017  0.5000000000000000
  0.3475545852248017  0.8475545852248019  0.5000000000000000
  0.8475545852248019  0.3475545852248017  0.5000000000000000
  0.8475545852248019  0.8475545852248019  0.5000000000000000
  0.0975545932247953  0.4024454147751983  0.7500000000000000
  0.0975545932247953  0.9024454147751981  0.7500000000000000
  0.5975545852248019  0.4024454147751983  0.7500000000000000
  0.5975545852248019  0.9024454147751981  0.7500000000000000
  0.4024454147751983  0.0975545932247953  0.7500000000000000
  0.4024454147751983  0.5975545852248019  0.7500000000000000
  0.9024454147751981  0.0975545932247953  0.7500000000000000
  0.9024454147751981  0.5975545852248019  0.7500000000000000
 
  0.00000000E+00  0.00000000E+00  0.00000000E+00
  0.00000000E+00  0.00000000E+00  0.00000000E+00
  0.00000000E+00  0.00000000E+00  0.00000000E+00
  0.00000000E+00  0.00000000E+00  0.00000000E+00
  0.00000000E+00  0.00000000E+00  0.00000000E+00
  0.00000000E+00  0.00000000E+00  0.00000000E+00
  0.00000000E+00  0.00000000E+00  0.00000000E+00
  0.00000000E+00  0.00000000E+00  0.00000000E+00
  0.00000000E+00  0.00000000E+00  0.00000000E+00
  0.00000000E+00  0.00000000E+00  0.00000000E+00
  0.00000000E+00  0.00000000E+00  0.00000000E+00
  0.00000000E+00  0.00000000E+00  0.00000000E+00
  0.00000000E+00  0.00000000E+00  0.00000000E+00
  0.00000000E+00  0.00000000E+00  0.00000000E+00
  0.00000000E+00  0.00000000E+00  0.00000000E+00
  0.00000000E+00  0.00000000E+00  0.00000000E+00
  0.00000000E+00  0.00000000E+00  0.00000000E+00
  0.00000000E+00  0.00000000E+00  0.00000000E+00
  0.00000000E+00  0.00000000E+00  0.00000000E+00
  0.00000000E+00  0.00000000E+00  0.00000000E+00
  0.00000000E+00  0.00000000E+00  0.00000000E+00
  0.00000000E+00  0.00000000E+00  0.00000000E+00
  0.00000000E+00  0.00000000E+00  0.00000000E+00
  0.00000000E+00  0.00000000E+00  0.00000000E+00
  0.00000000E+00  0.00000000E+00  0.00000000E+00
  0.00000000E+00  0.00000000E+00  0.00000000E+00
  0.00000000E+00  0.00000000E+00  0.00000000E+00
  0.00000000E+00  0.00000000E+00  0.00000000E+00
  0.00000000E+00  0.00000000E+00  0.00000000E+00
  0.00000000E+00  0.00000000E+00  0.00000000E+00
  0.00000000E+00  0.00000000E+00  0.00000000E+00
  0.00000000E+00  0.00000000E+00  0.00000000E+00
  0.00000000E+00  0.00000000E+00  0.00000000E+00
  0.00000000E+00  0.00000000E+00  0.00000000E+00
  0.00000000E+00  0.00000000E+00  0.00000000E+00
  0.00000000E+00  0.00000000E+00  0.00000000E+00
  0.00000000E+00  0.00000000E+00  0.00000000E+00
  0.00000000E+00  0.00000000E+00  0.00000000E+00
  0.00000000E+00  0.00000000E+00  0.00000000E+00
  0.00000000E+00  0.00000000E+00  0.00000000E+00
  0.00000000E+00  0.00000000E+00  0.00000000E+00
  0.00000000E+00  0.00000000E+00  0.00000000E+00
  0.00000000E+00  0.00000000E+00  0.00000000E+00
  0.00000000E+00  0.00000000E+00  0.00000000E+00
  0.00000000E+00  0.00000000E+00  0.00000000E+00
  0.00000000E+00  0.00000000E+00  0.00000000E+00
  0.00000000E+00  0.00000000E+00  0.00000000E+00
  0.00000000E+00  0.00000000E+00  0.00000000E+00
