O2 Sn1                                
1.0
        9.2781400681         0.0000000000         0.0000000000
        0.0000000000         9.2781400681         0.0000000000
        0.0000000000         0.0000000000         6.2322897911
   Sn    O
   16   32
Direct
     0.000000000         0.000000000         0.000000000
     0.000000000         0.500000000         0.000000000
     0.500000000         0.000000000         0.000000000
     0.500000000         0.500000000         0.000000000
     0.250000000         0.250000000         0.250000000
     0.250000000         0.750000000         0.250000000
     0.750000000         0.250000000         0.250000000
     0.750000000         0.750000000         0.250000000
     0.000000000         0.000000000         0.500000000
     0.000000000         0.500000000         0.500000000
     0.500000000         0.000000000         0.500000000
     0.500000000         0.500000000         0.500000000
     0.250000000         0.250000000         0.750000000
     0.250000000         0.750000000         0.750000000
     0.750000000         0.250000000         0.750000000
     0.750000000         0.750000000         0.750000000
     0.152518496         0.152518496         0.000000000
     0.152518496         0.652518511         0.000000000
     0.652518511         0.152518496         0.000000000
     0.652518511         0.652518511         0.000000000
     0.347481489         0.347481489         0.000000000
     0.347481489         0.847481489         0.000000000
     0.847481489         0.347481489         0.000000000
     0.847481489         0.847481489         0.000000000
     0.097481497         0.402518511         0.250000000
     0.097481497         0.902518511         0.250000000
     0.597481489         0.402518511         0.250000000
     0.597481489         0.902518511         0.250000000
     0.402518511         0.097481497         0.250000000
     0.402518511         0.597481489         0.250000000
     0.902518511         0.097481497         0.250000000
     0.902518511         0.597481489         0.250000000
     0.152518496         0.152518496         0.500000000
     0.152518496         0.652518511         0.500000000
     0.652518511         0.152518496         0.500000000
     0.652518511         0.652518511         0.500000000
     0.347481489         0.347481489         0.500000000
     0.347481489         0.847481489         0.500000000
     0.847481489         0.347481489         0.500000000
     0.847481489         0.847481489         0.500000000
     0.097481497         0.402518511         0.750000000
     0.097481497         0.902518511         0.750000000
     0.597481489         0.402518511         0.750000000
     0.597481489         0.902518511         0.750000000
     0.402518511         0.097481497         0.750000000
     0.402518511         0.597481489         0.750000000
     0.902518511         0.097481497         0.750000000
     0.902518511         0.597481489         0.750000000
